rocksalt_NaCl_4x4x4
1.0
22.56 0.0 0.0 
0.0 22.56 0.0 
0.0 0.0 22.56 
Na Cl 
256 256
Cartesian
0.0 0.0 0.0
2.82 0.0 2.82
0.0 2.82 2.82
2.82 2.82 0.0
0.0 0.0 5.64
2.82 0.0 8.459999999999999
0.0 2.82 8.459999999999999
2.82 2.82 5.64
0.0 0.0 11.28
2.82 0.0 14.1
0.0 2.82 14.1
2.82 2.82 11.28
0.0 0.0 16.919999999999998
2.82 0.0 19.74
0.0 2.82 19.74
2.82 2.82 16.919999999999998
0.0 5.64 0.0
2.82 5.64 2.82
0.0 8.459999999999999 2.82
2.82 8.459999999999999 0.0
0.0 5.64 5.64
2.82 5.64 8.459999999999999
0.0 8.459999999999999 8.459999999999999
2.82 8.459999999999999 5.64
0.0 5.64 11.28
2.82 5.64 14.1
0.0 8.459999999999999 14.1
2.82 8.459999999999999 11.28
0.0 5.64 16.919999999999998
2.82 5.64 19.74
0.0 8.459999999999999 19.74
2.82 8.459999999999999 16.919999999999998
0.0 11.28 0.0
2.82 11.28 2.82
0.0 14.1 2.82
2.82 14.1 0.0
0.0 11.28 5.64
2.82 11.28 8.459999999999999
0.0 14.1 8.459999999999999
2.82 14.1 5.64
0.0 11.28 11.28
2.82 11.28 14.1
0.0 14.1 14.1
2.82 14.1 11.28
0.0 11.28 16.919999999999998
2.82 11.28 19.74
0.0 14.1 19.74
2.82 14.1 16.919999999999998
0.0 16.919999999999998 0.0
2.82 16.919999999999998 2.82
0.0 19.74 2.82
2.82 19.74 0.0
0.0 16.919999999999998 5.64
2.82 16.919999999999998 8.459999999999999
0.0 19.74 8.459999999999999
2.82 19.74 5.64
0.0 16.919999999999998 11.28
2.82 16.919999999999998 14.1
0.0 19.74 14.1
2.82 19.74 11.28
0.0 16.919999999999998 16.919999999999998
2.82 16.919999999999998 19.74
0.0 19.74 19.74
2.82 19.74 16.919999999999998
5.64 0.0 0.0
8.459999999999999 0.0 2.82
5.64 2.82 2.82
8.459999999999999 2.82 0.0
5.64 0.0 5.64
8.459999999999999 0.0 8.459999999999999
5.64 2.82 8.459999999999999
8.459999999999999 2.82 5.64
5.64 0.0 11.28
8.459999999999999 0.0 14.1
5.64 2.82 14.1
8.459999999999999 2.82 11.28
5.64 0.0 16.919999999999998
8.459999999999999 0.0 19.74
5.64 2.82 19.74
8.459999999999999 2.82 16.919999999999998
5.64 5.64 0.0
8.459999999999999 5.64 2.82
5.64 8.459999999999999 2.82
8.459999999999999 8.459999999999999 0.0
5.64 5.64 5.64
8.459999999999999 5.64 8.459999999999999
5.64 8.459999999999999 8.459999999999999
8.459999999999999 8.459999999999999 5.64
5.64 5.64 11.28
8.459999999999999 5.64 14.1
5.64 8.459999999999999 14.1
8.459999999999999 8.459999999999999 11.28
5.64 5.64 16.919999999999998
8.459999999999999 5.64 19.74
5.64 8.459999999999999 19.74
8.459999999999999 8.459999999999999 16.919999999999998
5.64 11.28 0.0
8.459999999999999 11.28 2.82
5.64 14.1 2.82
8.459999999999999 14.1 0.0
5.64 11.28 5.64
8.459999999999999 11.28 8.459999999999999
5.64 14.1 8.459999999999999
8.459999999999999 14.1 5.64
5.64 11.28 11.28
8.459999999999999 11.28 14.1
5.64 14.1 14.1
8.459999999999999 14.1 11.28
5.64 11.28 16.919999999999998
8.459999999999999 11.28 19.74
5.64 14.1 19.74
8.459999999999999 14.1 16.919999999999998
5.64 16.919999999999998 0.0
8.459999999999999 16.919999999999998 2.82
5.64 19.74 2.82
8.459999999999999 19.74 0.0
5.64 16.919999999999998 5.64
8.459999999999999 16.919999999999998 8.459999999999999
5.64 19.74 8.459999999999999
8.459999999999999 19.74 5.64
5.64 16.919999999999998 11.28
8.459999999999999 16.919999999999998 14.1
5.64 19.74 14.1
8.459999999999999 19.74 11.28
5.64 16.919999999999998 16.919999999999998
8.459999999999999 16.919999999999998 19.74
5.64 19.74 19.74
8.459999999999999 19.74 16.919999999999998
11.28 0.0 0.0
14.1 0.0 2.82
11.28 2.82 2.82
14.1 2.82 0.0
11.28 0.0 5.64
14.1 0.0 8.459999999999999
11.28 2.82 8.459999999999999
14.1 2.82 5.64
11.28 0.0 11.28
14.1 0.0 14.1
11.28 2.82 14.1
14.1 2.82 11.28
11.28 0.0 16.919999999999998
14.1 0.0 19.74
11.28 2.82 19.74
14.1 2.82 16.919999999999998
11.28 5.64 0.0
14.1 5.64 2.82
11.28 8.459999999999999 2.82
14.1 8.459999999999999 0.0
11.28 5.64 5.64
14.1 5.64 8.459999999999999
11.28 8.459999999999999 8.459999999999999
14.1 8.459999999999999 5.64
11.28 5.64 11.28
14.1 5.64 14.1
11.28 8.459999999999999 14.1
14.1 8.459999999999999 11.28
11.28 5.64 16.919999999999998
14.1 5.64 19.74
11.28 8.459999999999999 19.74
14.1 8.459999999999999 16.919999999999998
11.28 11.28 0.0
14.1 11.28 2.82
11.28 14.1 2.82
14.1 14.1 0.0
11.28 11.28 5.64
14.1 11.28 8.459999999999999
11.28 14.1 8.459999999999999
14.1 14.1 5.64
11.28 11.28 11.28
14.1 11.28 14.1
11.28 14.1 14.1
14.1 14.1 11.28
11.28 11.28 16.919999999999998
14.1 11.28 19.74
11.28 14.1 19.74
14.1 14.1 16.919999999999998
11.28 16.919999999999998 0.0
14.1 16.919999999999998 2.82
11.28 19.74 2.82
14.1 19.74 0.0
11.28 16.919999999999998 5.64
14.1 16.919999999999998 8.459999999999999
11.28 19.74 8.459999999999999
14.1 19.74 5.64
11.28 16.919999999999998 11.28
14.1 16.919999999999998 14.1
11.28 19.74 14.1
14.1 19.74 11.28
11.28 16.919999999999998 16.919999999999998
14.1 16.919999999999998 19.74
11.28 19.74 19.74
14.1 19.74 16.919999999999998
16.919999999999998 0.0 0.0
19.74 0.0 2.82
16.919999999999998 2.82 2.82
19.74 2.82 0.0
16.919999999999998 0.0 5.64
19.74 0.0 8.459999999999999
16.919999999999998 2.82 8.459999999999999
19.74 2.82 5.64
16.919999999999998 0.0 11.28
19.74 0.0 14.1
16.919999999999998 2.82 14.1
19.74 2.82 11.28
16.919999999999998 0.0 16.919999999999998
19.74 0.0 19.74
16.919999999999998 2.82 19.74
19.74 2.82 16.919999999999998
16.919999999999998 5.64 0.0
19.74 5.64 2.82
16.919999999999998 8.459999999999999 2.82
19.74 8.459999999999999 0.0
16.919999999999998 5.64 5.64
19.74 5.64 8.459999999999999
16.919999999999998 8.459999999999999 8.459999999999999
19.74 8.459999999999999 5.64
16.919999999999998 5.64 11.28
19.74 5.64 14.1
16.919999999999998 8.459999999999999 14.1
19.74 8.459999999999999 11.28
16.919999999999998 5.64 16.919999999999998
19.74 5.64 19.74
16.919999999999998 8.459999999999999 19.74
19.74 8.459999999999999 16.919999999999998
16.919999999999998 11.28 0.0
19.74 11.28 2.82
16.919999999999998 14.1 2.82
19.74 14.1 0.0
16.919999999999998 11.28 5.64
19.74 11.28 8.459999999999999
16.919999999999998 14.1 8.459999999999999
19.74 14.1 5.64
16.919999999999998 11.28 11.28
19.74 11.28 14.1
16.919999999999998 14.1 14.1
19.74 14.1 11.28
16.919999999999998 11.28 16.919999999999998
19.74 11.28 19.74
16.919999999999998 14.1 19.74
19.74 14.1 16.919999999999998
16.919999999999998 16.919999999999998 0.0
19.74 16.919999999999998 2.82
16.919999999999998 19.74 2.82
19.74 19.74 0.0
16.919999999999998 16.919999999999998 5.64
19.74 16.919999999999998 8.459999999999999
16.919999999999998 19.74 8.459999999999999
19.74 19.74 5.64
16.919999999999998 16.919999999999998 11.28
19.74 16.919999999999998 14.1
16.919999999999998 19.74 14.1
19.74 19.74 11.28
16.919999999999998 16.919999999999998 16.919999999999998
19.74 16.919999999999998 19.74
16.919999999999998 19.74 19.74
19.74 19.74 16.919999999999998
2.82 2.82 2.82
2.82 0.0 0.0
0.0 2.82 0.0
0.0 0.0 2.82
2.82 2.82 8.459999999999999
2.82 0.0 5.64
0.0 2.82 5.64
0.0 0.0 8.459999999999999
2.82 2.82 14.1
2.82 0.0 11.28
0.0 2.82 11.28
0.0 0.0 14.1
2.82 2.82 19.74
2.82 0.0 16.919999999999998
0.0 2.82 16.919999999999998
0.0 0.0 19.74
2.82 8.459999999999999 2.82
2.82 5.64 0.0
0.0 8.459999999999999 0.0
0.0 5.64 2.82
2.82 8.459999999999999 8.459999999999999
2.82 5.64 5.64
0.0 8.459999999999999 5.64
0.0 5.64 8.459999999999999
2.82 8.459999999999999 14.1
2.82 5.64 11.28
0.0 8.459999999999999 11.28
0.0 5.64 14.1
2.82 8.459999999999999 19.74
2.82 5.64 16.919999999999998
0.0 8.459999999999999 16.919999999999998
0.0 5.64 19.74
2.82 14.1 2.82
2.82 11.28 0.0
0.0 14.1 0.0
0.0 11.28 2.82
2.82 14.1 8.459999999999999
2.82 11.28 5.64
0.0 14.1 5.64
0.0 11.28 8.459999999999999
2.82 14.1 14.1
2.82 11.28 11.28
0.0 14.1 11.28
0.0 11.28 14.1
2.82 14.1 19.74
2.82 11.28 16.919999999999998
0.0 14.1 16.919999999999998
0.0 11.28 19.74
2.82 19.74 2.82
2.82 16.919999999999998 0.0
0.0 19.74 0.0
0.0 16.919999999999998 2.82
2.82 19.74 8.459999999999999
2.82 16.919999999999998 5.64
0.0 19.74 5.64
0.0 16.919999999999998 8.459999999999999
2.82 19.74 14.1
2.82 16.919999999999998 11.28
0.0 19.74 11.28
0.0 16.919999999999998 14.1
2.82 19.74 19.74
2.82 16.919999999999998 16.919999999999998
0.0 19.74 16.919999999999998
0.0 16.919999999999998 19.74
8.459999999999999 2.82 2.82
8.459999999999999 0.0 0.0
5.64 2.82 0.0
5.64 0.0 2.82
8.459999999999999 2.82 8.459999999999999
8.459999999999999 0.0 5.64
5.64 2.82 5.64
5.64 0.0 8.459999999999999
8.459999999999999 2.82 14.1
8.459999999999999 0.0 11.28
5.64 2.82 11.28
5.64 0.0 14.1
8.459999999999999 2.82 19.74
8.459999999999999 0.0 16.919999999999998
5.64 2.82 16.919999999999998
5.64 0.0 19.74
8.459999999999999 8.459999999999999 2.82
8.459999999999999 5.64 0.0
5.64 8.459999999999999 0.0
5.64 5.64 2.82
8.459999999999999 8.459999999999999 8.459999999999999
8.459999999999999 5.64 5.64
5.64 8.459999999999999 5.64
5.64 5.64 8.459999999999999
8.459999999999999 8.459999999999999 14.1
8.459999999999999 5.64 11.28
5.64 8.459999999999999 11.28
5.64 5.64 14.1
8.459999999999999 8.459999999999999 19.74
8.459999999999999 5.64 16.919999999999998
5.64 8.459999999999999 16.919999999999998
5.64 5.64 19.74
8.459999999999999 14.1 2.82
8.459999999999999 11.28 0.0
5.64 14.1 0.0
5.64 11.28 2.82
8.459999999999999 14.1 8.459999999999999
8.459999999999999 11.28 5.64
5.64 14.1 5.64
5.64 11.28 8.459999999999999
8.459999999999999 14.1 14.1
8.459999999999999 11.28 11.28
5.64 14.1 11.28
5.64 11.28 14.1
8.459999999999999 14.1 19.74
8.459999999999999 11.28 16.919999999999998
5.64 14.1 16.919999999999998
5.64 11.28 19.74
8.459999999999999 19.74 2.82
8.459999999999999 16.919999999999998 0.0
5.64 19.74 0.0
5.64 16.919999999999998 2.82
8.459999999999999 19.74 8.459999999999999
8.459999999999999 16.919999999999998 5.64
5.64 19.74 5.64
5.64 16.919999999999998 8.459999999999999
8.459999999999999 19.74 14.1
8.459999999999999 16.919999999999998 11.28
5.64 19.74 11.28
5.64 16.919999999999998 14.1
8.459999999999999 19.74 19.74
8.459999999999999 16.919999999999998 16.919999999999998
5.64 19.74 16.919999999999998
5.64 16.919999999999998 19.74
14.1 2.82 2.82
14.1 0.0 0.0
11.28 2.82 0.0
11.28 0.0 2.82
14.1 2.82 8.459999999999999
14.1 0.0 5.64
11.28 2.82 5.64
11.28 0.0 8.459999999999999
14.1 2.82 14.1
14.1 0.0 11.28
11.28 2.82 11.28
11.28 0.0 14.1
14.1 2.82 19.74
14.1 0.0 16.919999999999998
11.28 2.82 16.919999999999998
11.28 0.0 19.74
14.1 8.459999999999999 2.82
14.1 5.64 0.0
11.28 8.459999999999999 0.0
11.28 5.64 2.82
14.1 8.459999999999999 8.459999999999999
14.1 5.64 5.64
11.28 8.459999999999999 5.64
11.28 5.64 8.459999999999999
14.1 8.459999999999999 14.1
14.1 5.64 11.28
11.28 8.459999999999999 11.28
11.28 5.64 14.1
14.1 8.459999999999999 19.74
14.1 5.64 16.919999999999998
11.28 8.459999999999999 16.919999999999998
11.28 5.64 19.74
14.1 14.1 2.82
14.1 11.28 0.0
11.28 14.1 0.0
11.28 11.28 2.82
14.1 14.1 8.459999999999999
14.1 11.28 5.64
11.28 14.1 5.64
11.28 11.28 8.459999999999999
14.1 14.1 14.1
14.1 11.28 11.28
11.28 14.1 11.28
11.28 11.28 14.1
14.1 14.1 19.74
14.1 11.28 16.919999999999998
11.28 14.1 16.919999999999998
11.28 11.28 19.74
14.1 19.74 2.82
14.1 16.919999999999998 0.0
11.28 19.74 0.0
11.28 16.919999999999998 2.82
14.1 19.74 8.459999999999999
14.1 16.919999999999998 5.64
11.28 19.74 5.64
11.28 16.919999999999998 8.459999999999999
14.1 19.74 14.1
14.1 16.919999999999998 11.28
11.28 19.74 11.28
11.28 16.919999999999998 14.1
14.1 19.74 19.74
14.1 16.919999999999998 16.919999999999998
11.28 19.74 16.919999999999998
11.28 16.919999999999998 19.74
19.74 2.82 2.82
19.74 0.0 0.0
16.919999999999998 2.82 0.0
16.919999999999998 0.0 2.82
19.74 2.82 8.459999999999999
19.74 0.0 5.64
16.919999999999998 2.82 5.64
16.919999999999998 0.0 8.459999999999999
19.74 2.82 14.1
19.74 0.0 11.28
16.919999999999998 2.82 11.28
16.919999999999998 0.0 14.1
19.74 2.82 19.74
19.74 0.0 16.919999999999998
16.919999999999998 2.82 16.919999999999998
16.919999999999998 0.0 19.74
19.74 8.459999999999999 2.82
19.74 5.64 0.0
16.919999999999998 8.459999999999999 0.0
16.919999999999998 5.64 2.82
19.74 8.459999999999999 8.459999999999999
19.74 5.64 5.64
16.919999999999998 8.459999999999999 5.64
16.919999999999998 5.64 8.459999999999999
19.74 8.459999999999999 14.1
19.74 5.64 11.28
16.919999999999998 8.459999999999999 11.28
16.919999999999998 5.64 14.1
19.74 8.459999999999999 19.74
19.74 5.64 16.919999999999998
16.919999999999998 8.459999999999999 16.919999999999998
16.919999999999998 5.64 19.74
19.74 14.1 2.82
19.74 11.28 0.0
16.919999999999998 14.1 0.0
16.919999999999998 11.28 2.82
19.74 14.1 8.459999999999999
19.74 11.28 5.64
16.919999999999998 14.1 5.64
16.919999999999998 11.28 8.459999999999999
19.74 14.1 14.1
19.74 11.28 11.28
16.919999999999998 14.1 11.28
16.919999999999998 11.28 14.1
19.74 14.1 19.74
19.74 11.28 16.919999999999998
16.919999999999998 14.1 16.919999999999998
16.919999999999998 11.28 19.74
19.74 19.74 2.82
19.74 16.919999999999998 0.0
16.919999999999998 19.74 0.0
16.919999999999998 16.919999999999998 2.82
19.74 19.74 8.459999999999999
19.74 16.919999999999998 5.64
16.919999999999998 19.74 5.64
16.919999999999998 16.919999999999998 8.459999999999999
19.74 19.74 14.1
19.74 16.919999999999998 11.28
16.919999999999998 19.74 11.28
16.919999999999998 16.919999999999998 14.1
19.74 19.74 19.74
19.74 16.919999999999998 16.919999999999998
16.919999999999998 19.74 16.919999999999998
16.919999999999998 16.919999999999998 19.74
