diamond_Ge_2                            
   1.00000000000000     
     0.0000000000000000    2.8376999999999999    2.8376999999999999
     2.8376999999999999    0.0000000000000000    2.8376999999999999
     2.8376999999999999    2.8376999999999999    0.0000000000000000
   Ge
     2
Direct
  0.7500000000000000  0.7500000000000000  0.7500000000000000
  0.5000000000000000  0.5000000000000000  0.5000000000000000
 
  0.00000000E+00  0.00000000E+00  0.00000000E+00
  0.00000000E+00  0.00000000E+00  0.00000000E+00
