diamond_Ge_2
1.0
0.0 2.8377 2.8377
2.8377 0.0 2.8377
2.8377 2.8377 0.0
Ge
2
direct
0.75 0.75 0.75
0.50 0.50 0.50
