Diamond_C_2x2x2
1.0
11.3508 0.0 0.0 
0.0 11.3508 0.0 
0.0 0.0 11.3508 
Ge
64
Cartesian
0.0 0.0 0.0
0.0 2.8377 2.8377
2.8377 0.0 2.8377
2.8377 2.8377 0.0
1.41885 1.41885 1.41885
4.25655 4.25655 1.41885
4.25655 1.41885 4.25655
1.41885 4.25655 4.25655
0.0 0.0 5.6754
0.0 2.8377 8.5131
2.8377 0.0 8.5131
2.8377 2.8377 5.6754
1.41885 1.41885 7.09425
4.25655 4.25655 7.09425
4.25655 1.41885 9.93195
1.41885 4.25655 9.93195
0.0 5.6754 0.0
0.0 8.5131 2.8377
2.8377 5.6754 2.8377
2.8377 8.5131 0.0
1.41885 7.09425 1.41885
4.25655 9.93195 1.41885
4.25655 7.09425 4.25655
1.41885 9.93195 4.25655
0.0 5.6754 5.6754
0.0 8.5131 8.5131
2.8377 5.6754 8.5131
2.8377 8.5131 5.6754
1.41885 7.09425 7.09425
4.25655 9.93195 7.09425
4.25655 7.09425 9.93195
1.41885 9.93195 9.93195
5.6754 0.0 0.0
5.6754 2.8377 2.8377
8.5131 0.0 2.8377
8.5131 2.8377 0.0
7.09425 1.41885 1.41885
9.93195 4.25655 1.41885
9.93195 1.41885 4.25655
7.09425 4.25655 4.25655
5.6754 0.0 5.6754
5.6754 2.8377 8.5131
8.5131 0.0 8.5131
8.5131 2.8377 5.6754
7.09425 1.41885 7.09425
9.93195 4.25655 7.09425
9.93195 1.41885 9.93195
7.09425 4.25655 9.93195
5.6754 5.6754 0.0
5.6754 8.5131 2.8377
8.5131 5.6754 2.8377
8.5131 8.5131 0.0
7.09425 7.09425 1.41885
9.93195 9.93195 1.41885
9.93195 7.09425 4.25655
7.09425 9.93195 4.25655
5.6754 5.6754 5.6754
5.6754 8.5131 8.5131
8.5131 5.6754 8.5131
8.5131 8.5131 5.6754
7.09425 7.09425 7.09425
9.93195 9.93195 7.09425
9.93195 7.09425 9.93195
7.09425 9.93195 9.93195
