# Basic parameters
ISMEAR = 0
SIGMA = 0.05
LREAL = Auto
ISYM = 0
NELMIN = 4
NELM = 100
EDIFF = 1E-6
LWAVE = .FALSE.
LCHARG = .FALSE.
ALGO = Normal
PREC = Normal

# MD
IBRION = 0
MDALGO = 3
ISIF = 3
SMASS = -1
TEBEG = 300
TEEND = 300
NSW = 100
POTIM = 1.0
LANGEVIN_GAMMA = 10.0
LANGEVIN_GAMMA_L = 10.0


