# Basic parameters
ISMEAR = 0
SIGMA = 0.05
ISYM = 0
NELMIN = 4
NELM = 100
EDIFF = 1E-6
ALGO = VeryFast
PREC = Accurate
LREAL = Auto

# Not change position
IBRION = -1

      
