System = fcc Si 
ICHARG = 11 
ISMEAR = 0
SIGMA = 0.1
LORBIT = 11





