Diamond_Ge_2x2x2                        
   1.00000000000000     
    11.4315264993451855   -0.0330240743300556   -0.0450484314858620
    -0.0000000000000593   11.4524492824914592    0.0872626208571863
     0.0000000000000087   -0.0000000000000652   11.4404094369150329
   Ge
    64
Direct
  0.0006439063409543  0.0135315356166724  0.0027481199625392
  0.0004401362762973  0.2625093518244394  0.2608952310284391
  0.2415993346967663  0.0037952997570660  0.2539036802740109
  0.2574153258706128  0.2593340334585836  0.0140016327073611
  0.1251400712626279  0.1316092354361102  0.1335484884287320
  0.3688712799575468  0.3857913687113165  0.1381631286794960
  0.3747076134127739  0.1309475308141391  0.3778963081504282
  0.1137170294862316  0.3901248327284053  0.3887321745259885
  0.0071195136610145  0.0020976329944037  0.5040926879055360
  0.0050225384257812  0.2570073745424793  0.7592731436423400
  0.2477235871036572  0.0032693431201349  0.7518766378166029
  0.2544170694742361  0.2608893992769922  0.5007083523176643
  0.1315205282381076  0.1393420197188001  0.6324621648613300
  0.3738809492351450  0.3847903524632048  0.6309566252662629
  0.3797123014157327  0.1357343427572616  0.8783513479319969
  0.1301865362096575  0.3844827158427752  0.8864235533335982
 -0.0081620181275460  0.5035456132140117 -0.0012307006140154
  0.0019149795444881  0.7608769992833256  0.2386530238534038
  0.2463156015636236  0.5005929077458638  0.2604276337147636
  0.2526136866652631  0.7523693594509501 -0.0003629888914217
  0.1199402677914027  0.6260809763860277  0.1158721955373586
  0.3736144707757282  0.8707381555500829  0.1199864823463087
  0.3756551096446249  0.6261149878608473  0.3752571158540298
  0.1134320282006401  0.8760888505498222  0.3706282296522276
 -0.0134618956199399  0.4952750056296036  0.5163936089735008
 -0.0039754609394328  0.7478478489347727  0.7482793557100561
  0.2505870564387257  0.5035551887674847  0.7477912073837966
  0.2414246358239993  0.7449956862624857  0.4974817800448783
  0.1160853393938130  0.6156911473120007  0.6306993554071761
  0.3670027205488731  0.8677517375803335  0.6278772044006133
  0.3762523304852974  0.6322064241228565  0.8676172247024775
  0.1129622288492308  0.8777480230310444  0.8787958526094402
  0.4982883771358353  0.0097241686016359  0.0007770749278344
  0.5008738903957379  0.2591576595613237  0.2528909334865929
  0.7459680063999773  0.0055302969289845  0.2575240171552018
  0.7472445165555487  0.2519144521751310 -0.0041351242294799
  0.6198735093262027  0.1360546027819372  0.1262286198577655
  0.8693623812215827  0.3708879679449141  0.1284669041248163
  0.8816574865228600  0.1283597074706642  0.3695589846645979
  0.6365767388312806  0.3798267069722010  0.3772493141411072
  0.4922647517759383  0.0048754688217959  0.5019895208742667
  0.5132943853818195  0.2537722851395593  0.7489072119804080
  0.7539037182746968  0.0040109747625049  0.7507666943619675
  0.7546201283243948  0.2470802822701966  0.4962695122639705
  0.6201030918525778  0.1217423972515408  0.6171181127558868
  0.8686789541601668  0.3596354093247349  0.6335822769147483
  0.8783782720563185  0.1324178501542866  0.8776644117366847
  0.6241281064641315  0.3853947311834997  0.8727785144127509
  0.4912404102389453  0.5080520478439443 -0.0096166469249012
  0.5068596545803100  0.7569288655878402  0.2433573556456660
  0.7547970014924793  0.5032055996317474  0.2467822501274922
  0.7495140912115892  0.7487377410225264 -0.0054476290331404
  0.6229841206607053  0.6235518322543186  0.1231500214873980
  0.8613851926155650  0.8848760942475018  0.1218424180009619
  0.8805174232330167  0.6271531783765859  0.3731294077312384
  0.6202776394380699  0.8733097348298979  0.3779432635359898
  0.5139456106207281  0.5067126915771465  0.5093634825252757
  0.5061719187311781  0.7572941623876371  0.7515149613221644
  0.7566727631784751  0.5025250240823554  0.7586764257463178
  0.7490069140697653  0.7472934836860635  0.5000382605429819
  0.6322032313752992  0.6274072604377976  0.6341335678781512
  0.8719487022321428  0.8752083427572579  0.6200048388237657
  0.8771387395527539  0.6324583892620430  0.8705211713465312
  0.6275020343486477  0.8822036259260799  0.8787109882279907
Lattice velocities and vectors
           1
  0.14491105E-02  0.47688061E-03  0.86377339E-05
 -0.13207123E-03  0.11200437E-02 -0.17410557E-05
  0.28817541E-03  0.81316021E-03  0.13860473E-02
  0.11432976E+02 -0.32678036E-01 -0.44754199E-01
 -0.57680134E-13  0.11453563E+02  0.88074899E-01
  0.10486083E-13 -0.68885319E-13  0.11441795E+02
 
  0.38306115E-03 -0.14835192E-02  0.34746566E-02
  0.11682002E-02  0.17657962E-03  0.96887118E-03
 -0.68647083E-03 -0.31723597E-03 -0.56748644E-03
  0.80602734E-03 -0.86851282E-03  0.90810998E-03
  0.26315109E-02  0.83295696E-03  0.17739889E-02
 -0.82376951E-03  0.34763732E-03  0.23802828E-03
  0.30069664E-02  0.17157978E-02 -0.73710007E-03
  0.29138776E-02 -0.13847004E-02  0.25867148E-02
  0.11831438E-02  0.29089869E-02  0.37015718E-03
 -0.77187663E-03 -0.12129229E-02  0.30152877E-02
 -0.27017828E-03  0.25423464E-03  0.66221304E-03
  0.13671865E-02  0.32281701E-03  0.12293351E-02
  0.12659553E-02  0.79896267E-03  0.12538805E-02
  0.49309856E-03  0.11756123E-02  0.14762221E-02
  0.16495432E-02 -0.54855899E-03  0.13050943E-02
  0.61736555E-03  0.59230772E-03  0.25691505E-03
 -0.21769369E-02 -0.40835555E-03  0.91493538E-03
 -0.49690742E-03  0.15780575E-02 -0.64901686E-03
  0.80206829E-03  0.22279257E-02  0.82123544E-03
 -0.33787376E-03 -0.23428544E-02 -0.80191421E-03
  0.95414001E-03 -0.73178601E-03  0.14437272E-02
  0.10728376E-02  0.28665556E-02 -0.81102254E-03
  0.32300498E-02  0.24912779E-02  0.12064729E-02
  0.87661205E-03  0.64064502E-03  0.16021677E-03
  0.37592024E-03 -0.13078670E-02  0.11673581E-02
  0.14978587E-03 -0.13158690E-02 -0.29233099E-02
  0.52567719E-03  0.55635573E-03 -0.22507819E-02
 -0.26251730E-02 -0.11910711E-02 -0.27529812E-03
  0.40670736E-03 -0.88834075E-03  0.12553246E-03
 -0.27802616E-02  0.12180823E-02  0.57101609E-03
 -0.20286365E-02 -0.10810098E-02  0.29967975E-02
  0.42697821E-03  0.25135514E-02  0.39523087E-03
 -0.38766628E-02  0.20690122E-03  0.25623074E-02
  0.42180472E-03  0.21083447E-02  0.29225565E-03
 -0.35665002E-03  0.33373971E-04  0.70546287E-04
 -0.16875960E-02  0.96491823E-03 -0.50462866E-03
 -0.26125991E-02 -0.14765478E-02  0.48419271E-03
 -0.90641390E-03  0.68931878E-03 -0.10894208E-02
 -0.62342643E-04  0.10982142E-02  0.14861304E-02
 -0.13141986E-02  0.24287497E-02 -0.95124762E-04
 -0.13191865E-02  0.23521041E-02  0.65171236E-03
 -0.24351662E-02 -0.10644371E-02  0.10330065E-02
  0.19265571E-02 -0.19193032E-02 -0.27878473E-03
  0.21222126E-02  0.81262797E-03  0.17394856E-02
  0.21746438E-02  0.38612759E-03 -0.77561296E-03
  0.11095767E-02  0.11589961E-03 -0.91838374E-04
  0.48194648E-03  0.77784826E-03 -0.88535908E-03
 -0.92727810E-03  0.17094114E-02  0.37546598E-03
 -0.65202632E-03  0.17657267E-02  0.23338815E-02
  0.18284078E-02  0.55622092E-03  0.71703336E-03
 -0.30145093E-03 -0.66588900E-03 -0.22624964E-03
  0.10427383E-02  0.17475433E-02 -0.14526993E-02
  0.10933667E-02 -0.44214127E-03 -0.25964364E-02
 -0.15173211E-02  0.23941172E-02 -0.16259976E-03
  0.11353050E-02  0.10963158E-02  0.13315154E-02
 -0.11051953E-02  0.79125238E-03 -0.27383837E-02
  0.30911162E-02  0.15770670E-03  0.42495448E-03
  0.70368152E-03 -0.12690355E-02  0.11077420E-02
 -0.29322844E-03  0.12305711E-02  0.66268912E-04
 -0.68853521E-03  0.15914358E-02  0.10757528E-02
  0.80891261E-03  0.20433948E-02  0.10094945E-02
 -0.27773421E-03  0.27448320E-03 -0.17959437E-02
 -0.21734325E-02  0.14151411E-02 -0.22242885E-02
 -0.33110785E-02  0.27758973E-02  0.34355230E-02
 
           1
   1.00000000000000     
  0.10000000E+01  0.00000000E+00  0.00000000E+00  0.00000000E+00
  0.67741128E-03  0.13402107E-01  0.30529284E-02
  0.54231441E-03  0.26252506E+00  0.26098019E+00
  0.24153929E+00  0.37674309E-02  0.25385406E+00
  0.25748583E+00  0.25925841E+00  0.14081858E-01
  0.12537024E+00  0.13168262E+00  0.13370387E+00
  0.36879923E+00  0.38582152E+00  0.13818342E+00
  0.37497062E+00  0.13109809E+00  0.37783176E+00
  0.11397190E+00  0.39000466E+00  0.38896017E+00
  0.72229989E-02  0.23519092E-02  0.50412349E+00
  0.49550252E-02  0.25690128E+00  0.75953723E+00
  0.24769996E+00  0.32914727E-02  0.75193425E+00
  0.25453665E+00  0.26091793E+00  0.50081604E+00
  0.13163126E+00  0.13941209E+00  0.63257165E+00
  0.37392408E+00  0.38489312E+00  0.63108502E+00
  0.37985658E+00  0.13568686E+00  0.87846634E+00
  0.13024053E+00  0.38453458E+00  0.88644582E+00
  0.99164757E+00  0.50350942E+00  0.99884880E+00
  0.18715169E-02  0.76101465E+00  0.23859507E+00
  0.24638576E+00  0.50078763E+00  0.26049818E+00
  0.25258413E+00  0.75216472E+00  0.99956838E+00
  0.12002372E+00  0.62601732E+00  0.11599919E+00
  0.37370831E+00  0.87098870E+00  0.11991404E+00
  0.37593763E+00  0.62633331E+00  0.37536198E+00
  0.11350870E+00  0.87614500E+00  0.37064210E+00
  0.98657098E+00  0.49516091E+00  0.51649664E+00
  0.99603764E+00  0.74773300E+00  0.74802480E+00
  0.25063304E+00  0.50360389E+00  0.74759430E+00
  0.24119502E+00  0.74489104E+00  0.49745763E+00
  0.11612091E+00  0.61561369E+00  0.63071106E+00
  0.36675954E+00  0.86785739E+00  0.62792535E+00
  0.37607489E+00  0.63211154E+00  0.86787918E+00
  0.11299958E+00  0.87796759E+00  0.87882885E+00
  0.49794930E+00  0.97412655E-02  0.99955980E-03
  0.50091078E+00  0.25934184E+00  0.25291520E+00
  0.74593681E+00  0.55331218E-02  0.25753004E+00
  0.74709691E+00  0.25199828E+00  0.99581955E+00
  0.61964499E+00  0.13592503E+00  0.12627104E+00
  0.86928310E+00  0.37094793E+00  0.12837092E+00
  0.88165203E+00  0.12845558E+00  0.36968811E+00
  0.63646179E+00  0.38003843E+00  0.37723892E+00
  0.49214937E+00  0.50804997E-02  0.50204445E+00
  0.51308139E+00  0.25367874E+00  0.74899738E+00
  0.75407223E+00  0.38438829E-02  0.75074427E+00
  0.75480575E+00  0.24715176E+00  0.49642172E+00
  0.62029330E+00  0.12177665E+00  0.61705081E+00
  0.86877600E+00  0.35964581E+00  0.63357455E+00
  0.87842043E+00  0.13248588E+00  0.87758667E+00
  0.62404700E+00  0.38554375E+00  0.87280987E+00
  0.49118338E+00  0.50820605E+00  0.99058592E+00
  0.50701958E+00  0.75697788E+00  0.24342027E+00
  0.75477063E+00  0.50314739E+00  0.24676282E+00
  0.74960530E+00  0.74889058E+00  0.99442459E+00
  0.62307975E+00  0.62351350E+00  0.12292376E+00
  0.86125248E+00  0.88508474E+00  0.12182608E+00
  0.88061672E+00  0.62724918E+00  0.37324543E+00
  0.62018097E+00  0.87337854E+00  0.37770302E+00
  0.51421598E+00  0.50672723E+00  0.50940157E+00
  0.50623347E+00  0.75718354E+00  0.75161287E+00
  0.75664712E+00  0.50263239E+00  0.75868129E+00
  0.74894669E+00  0.74743226E+00  0.50013098E+00
  0.63227398E+00  0.62758587E+00  0.63422070E+00
  0.87192441E+00  0.87523224E+00  0.61984760E+00
  0.87694864E+00  0.63258140E+00  0.87032508E+00
  0.62721243E+00  0.88244516E+00  0.87900826E+00
  0.00000000E+00  0.00000000E+00  0.00000000E+00
  0.00000000E+00  0.00000000E+00  0.00000000E+00
  0.00000000E+00  0.00000000E+00  0.00000000E+00
  0.00000000E+00  0.00000000E+00  0.00000000E+00
  0.00000000E+00  0.00000000E+00  0.00000000E+00
  0.00000000E+00  0.00000000E+00  0.00000000E+00
  0.00000000E+00  0.00000000E+00  0.00000000E+00
  0.00000000E+00  0.00000000E+00  0.00000000E+00
  0.00000000E+00  0.00000000E+00  0.00000000E+00
  0.00000000E+00  0.00000000E+00  0.00000000E+00
  0.00000000E+00  0.00000000E+00  0.00000000E+00
  0.00000000E+00  0.00000000E+00  0.00000000E+00
  0.00000000E+00  0.00000000E+00  0.00000000E+00
  0.00000000E+00  0.00000000E+00  0.00000000E+00
  0.00000000E+00  0.00000000E+00  0.00000000E+00
  0.00000000E+00  0.00000000E+00  0.00000000E+00
  0.00000000E+00  0.00000000E+00  0.00000000E+00
  0.00000000E+00  0.00000000E+00  0.00000000E+00
  0.00000000E+00  0.00000000E+00  0.00000000E+00
  0.00000000E+00  0.00000000E+00  0.00000000E+00
  0.00000000E+00  0.00000000E+00  0.00000000E+00
  0.00000000E+00  0.00000000E+00  0.00000000E+00
  0.00000000E+00  0.00000000E+00  0.00000000E+00
  0.00000000E+00  0.00000000E+00  0.00000000E+00
  0.00000000E+00  0.00000000E+00  0.00000000E+00
  0.00000000E+00  0.00000000E+00  0.00000000E+00
  0.00000000E+00  0.00000000E+00  0.00000000E+00
  0.00000000E+00  0.00000000E+00  0.00000000E+00
  0.00000000E+00  0.00000000E+00  0.00000000E+00
  0.00000000E+00  0.00000000E+00  0.00000000E+00
  0.00000000E+00  0.00000000E+00  0.00000000E+00
  0.00000000E+00  0.00000000E+00  0.00000000E+00
  0.00000000E+00  0.00000000E+00  0.00000000E+00
  0.00000000E+00  0.00000000E+00  0.00000000E+00
  0.00000000E+00  0.00000000E+00  0.00000000E+00
  0.00000000E+00  0.00000000E+00  0.00000000E+00
  0.00000000E+00  0.00000000E+00  0.00000000E+00
  0.00000000E+00  0.00000000E+00  0.00000000E+00
  0.00000000E+00  0.00000000E+00  0.00000000E+00
  0.00000000E+00  0.00000000E+00  0.00000000E+00
  0.00000000E+00  0.00000000E+00  0.00000000E+00
  0.00000000E+00  0.00000000E+00  0.00000000E+00
  0.00000000E+00  0.00000000E+00  0.00000000E+00
  0.00000000E+00  0.00000000E+00  0.00000000E+00
  0.00000000E+00  0.00000000E+00  0.00000000E+00
  0.00000000E+00  0.00000000E+00  0.00000000E+00
  0.00000000E+00  0.00000000E+00  0.00000000E+00
  0.00000000E+00  0.00000000E+00  0.00000000E+00
  0.00000000E+00  0.00000000E+00  0.00000000E+00
  0.00000000E+00  0.00000000E+00  0.00000000E+00
  0.00000000E+00  0.00000000E+00  0.00000000E+00
  0.00000000E+00  0.00000000E+00  0.00000000E+00
  0.00000000E+00  0.00000000E+00  0.00000000E+00
  0.00000000E+00  0.00000000E+00  0.00000000E+00
  0.00000000E+00  0.00000000E+00  0.00000000E+00
  0.00000000E+00  0.00000000E+00  0.00000000E+00
  0.00000000E+00  0.00000000E+00  0.00000000E+00
  0.00000000E+00  0.00000000E+00  0.00000000E+00
  0.00000000E+00  0.00000000E+00  0.00000000E+00
  0.00000000E+00  0.00000000E+00  0.00000000E+00
  0.00000000E+00  0.00000000E+00  0.00000000E+00
  0.00000000E+00  0.00000000E+00  0.00000000E+00
  0.00000000E+00  0.00000000E+00  0.00000000E+00
  0.00000000E+00  0.00000000E+00  0.00000000E+00
  0.00000000E+00  0.00000000E+00  0.00000000E+00
  0.00000000E+00  0.00000000E+00  0.00000000E+00
  0.00000000E+00  0.00000000E+00  0.00000000E+00
  0.00000000E+00  0.00000000E+00  0.00000000E+00
  0.00000000E+00  0.00000000E+00  0.00000000E+00
  0.00000000E+00  0.00000000E+00  0.00000000E+00
  0.00000000E+00  0.00000000E+00  0.00000000E+00
  0.00000000E+00  0.00000000E+00  0.00000000E+00
  0.00000000E+00  0.00000000E+00  0.00000000E+00
  0.00000000E+00  0.00000000E+00  0.00000000E+00
  0.00000000E+00  0.00000000E+00  0.00000000E+00
  0.00000000E+00  0.00000000E+00  0.00000000E+00
  0.00000000E+00  0.00000000E+00  0.00000000E+00
  0.00000000E+00  0.00000000E+00  0.00000000E+00
  0.00000000E+00  0.00000000E+00  0.00000000E+00
  0.00000000E+00  0.00000000E+00  0.00000000E+00
  0.00000000E+00  0.00000000E+00  0.00000000E+00
  0.00000000E+00  0.00000000E+00  0.00000000E+00
  0.00000000E+00  0.00000000E+00  0.00000000E+00
  0.00000000E+00  0.00000000E+00  0.00000000E+00
  0.00000000E+00  0.00000000E+00  0.00000000E+00
  0.00000000E+00  0.00000000E+00  0.00000000E+00
  0.00000000E+00  0.00000000E+00  0.00000000E+00
  0.00000000E+00  0.00000000E+00  0.00000000E+00
  0.00000000E+00  0.00000000E+00  0.00000000E+00
  0.00000000E+00  0.00000000E+00  0.00000000E+00
  0.00000000E+00  0.00000000E+00  0.00000000E+00
  0.00000000E+00  0.00000000E+00  0.00000000E+00
  0.00000000E+00  0.00000000E+00  0.00000000E+00
  0.00000000E+00  0.00000000E+00  0.00000000E+00
  0.00000000E+00  0.00000000E+00  0.00000000E+00
  0.00000000E+00  0.00000000E+00  0.00000000E+00
  0.00000000E+00  0.00000000E+00  0.00000000E+00
  0.00000000E+00  0.00000000E+00  0.00000000E+00
  0.00000000E+00  0.00000000E+00  0.00000000E+00
  0.00000000E+00  0.00000000E+00  0.00000000E+00
  0.00000000E+00  0.00000000E+00  0.00000000E+00
  0.00000000E+00  0.00000000E+00  0.00000000E+00
  0.00000000E+00  0.00000000E+00  0.00000000E+00
  0.00000000E+00  0.00000000E+00  0.00000000E+00
  0.00000000E+00  0.00000000E+00  0.00000000E+00
  0.00000000E+00  0.00000000E+00  0.00000000E+00
  0.00000000E+00  0.00000000E+00  0.00000000E+00
  0.00000000E+00  0.00000000E+00  0.00000000E+00
  0.00000000E+00  0.00000000E+00  0.00000000E+00
  0.00000000E+00  0.00000000E+00  0.00000000E+00
  0.00000000E+00  0.00000000E+00  0.00000000E+00
  0.00000000E+00  0.00000000E+00  0.00000000E+00
  0.00000000E+00  0.00000000E+00  0.00000000E+00
  0.00000000E+00  0.00000000E+00  0.00000000E+00
  0.00000000E+00  0.00000000E+00  0.00000000E+00
  0.00000000E+00  0.00000000E+00  0.00000000E+00
  0.00000000E+00  0.00000000E+00  0.00000000E+00
  0.00000000E+00  0.00000000E+00  0.00000000E+00
  0.00000000E+00  0.00000000E+00  0.00000000E+00
  0.00000000E+00  0.00000000E+00  0.00000000E+00
  0.00000000E+00  0.00000000E+00  0.00000000E+00
  0.00000000E+00  0.00000000E+00  0.00000000E+00
  0.00000000E+00  0.00000000E+00  0.00000000E+00
  0.00000000E+00  0.00000000E+00  0.00000000E+00
  0.00000000E+00  0.00000000E+00  0.00000000E+00
  0.00000000E+00  0.00000000E+00  0.00000000E+00
  0.00000000E+00  0.00000000E+00  0.00000000E+00
  0.00000000E+00  0.00000000E+00  0.00000000E+00
